NAME 
OBJSENSE MAX
ROWS
 N  OBJ
 L  packing[0]
 L  packing[1]
 L  packing[2]
 L  packing[3]
 L  packing[4]
 L  packing[5]
 L  packing[6]
 L  packing[7]
 L  packing[8]
 L  packing[9]
 L  packing[10]
 L  packing[11]
 L  packing[12]
 L  packing[13]
 L  packing[14]
 L  packing[15]
 L  packing[16]
 L  packing[17]
 L  packing[18]
 L  packing[19]
 L  packing[20]
 L  packing[21]
 L  packing[22]
 L  packing[23]
 L  packing[24]
 L  packing[25]
 L  packing[26]
 L  packing[27]
 L  packing[28]
 L  packing[29]
 L  packing[30]
 L  packing[31]
 L  packing[32]
 L  packing[33]
 L  packing[34]
 L  packing[35]
 L  packing[36]
 L  packing[37]
 L  packing[38]
 L  packing[39]
 L  packing[40]
 L  packing[41]
 L  packing[42]
 L  packing[43]
 L  packing[44]
 L  packing[45]
 L  packing[46]
 L  packing[47]
 L  packing[48]
 L  packing[49]
 L  R62     
COLUMNS
    MARKER    'MARKER'                 'INTORG'
    x[1]      OBJ       50
    x[1]      packing[0]  11
    x[1]      packing[1]  46
    x[1]      packing[2]  172
    x[1]      packing[4]  95
    x[1]      packing[5]  66
    x[1]      packing[8]  152
    x[1]      packing[9]  134
    x[1]      packing[10]  80
    x[1]      packing[16]  142
    x[1]      packing[17]  152
    x[1]      packing[18]  125
    x[1]      packing[20]  54
    x[1]      packing[21]  180
    x[1]      packing[23]  171
    x[1]      packing[24]  168
    x[1]      packing[25]  37
    x[1]      packing[26]  3
    x[1]      packing[27]  57
    x[1]      packing[28]  59
    x[1]      packing[29]  179
    x[1]      packing[32]  93
    x[1]      packing[33]  155
    x[1]      packing[34]  18
    x[1]      packing[35]  90
    x[1]      packing[36]  72
    x[1]      packing[37]  11
    x[1]      packing[38]  110
    x[1]      packing[40]  77
    x[1]      packing[41]  163
    x[1]      packing[42]  80
    x[1]      packing[43]  9
    x[1]      packing[44]  171
    x[1]      packing[45]  158
    x[1]      packing[47]  125
    x[1]      packing[48]  30
    x[2]      OBJ       93
    x[2]      packing[0]  175
    x[2]      packing[1]  153
    x[2]      packing[3]  163
    x[2]      packing[4]  183
    x[2]      packing[5]  194
    x[2]      packing[6]  1
    x[2]      packing[7]  35
    x[2]      packing[8]  20
    x[2]      packing[9]  78
    x[2]      packing[10]  56
    x[2]      packing[11]  13
    x[2]      packing[12]  116
    x[2]      packing[14]  83
    x[2]      packing[15]  84
    x[2]      packing[17]  81
    x[2]      packing[18]  32
    x[2]      packing[19]  165
    x[2]      packing[20]  100
    x[2]      packing[23]  19
    x[2]      packing[24]  161
    x[2]      packing[25]  36
    x[2]      packing[26]  139
    x[2]      packing[27]  25
    x[2]      packing[28]  48
    x[2]      packing[30]  194
    x[2]      packing[31]  192
    x[2]      packing[32]  175
    x[2]      packing[33]  16
    x[2]      packing[34]  74
    x[2]      packing[35]  139
    x[2]      packing[38]  29
    x[2]      packing[39]  135
    x[2]      packing[41]  177
    x[2]      packing[42]  164
    x[2]      packing[43]  45
    x[2]      packing[44]  48
    x[2]      packing[45]  27
    x[2]      packing[46]  25
    x[2]      packing[47]  77
    x[2]      packing[48]  170
    x[2]      packing[49]  112
    x[3]      OBJ       183
    x[3]      packing[0]  187
    x[3]      packing[1]  20
    x[3]      packing[2]  1
    x[3]      packing[3]  13
    x[3]      packing[4]  163
    x[3]      packing[5]  128
    x[3]      packing[6]  135
    x[3]      packing[7]  112
    x[3]      packing[8]  133
    x[3]      packing[9]  181
    x[3]      packing[10]  104
    x[3]      packing[11]  155
    x[3]      packing[12]  7
    x[3]      packing[13]  170
    x[3]      packing[14]  132
    x[3]      packing[15]  174
    x[3]      packing[16]  46
    x[3]      packing[17]  34
    x[3]      packing[19]  137
    x[3]      packing[20]  43
    x[3]      packing[21]  185
    x[3]      packing[22]  192
    x[3]      packing[24]  188
    x[3]      packing[25]  123
    x[3]      packing[26]  88
    x[3]      packing[27]  23
    x[3]      packing[28]  17
    x[3]      packing[29]  12
    x[3]      packing[30]  183
    x[3]      packing[31]  94
    x[3]      packing[32]  116
    x[3]      packing[33]  151
    x[3]      packing[34]  64
    x[3]      packing[35]  14
    x[3]      packing[36]  163
    x[3]      packing[37]  107
    x[3]      packing[38]  166
    x[3]      packing[40]  108
    x[3]      packing[42]  187
    x[3]      packing[43]  152
    x[3]      packing[44]  136
    x[3]      packing[45]  194
    x[3]      packing[46]  100
    x[3]      packing[47]  148
    x[3]      R62       1
    x[4]      OBJ       73
    x[4]      packing[0]  52
    x[4]      packing[1]  142
    x[4]      packing[2]  44
    x[4]      packing[3]  169
    x[4]      packing[5]  55
    x[4]      packing[6]  127
    x[4]      packing[7]  100
    x[4]      packing[11]  9
    x[4]      packing[12]  126
    x[4]      packing[13]  63
    x[4]      packing[14]  186
    x[4]      packing[15]  19
    x[4]      packing[17]  107
    x[4]      packing[19]  86
    x[4]      packing[20]  29
    x[4]      packing[21]  9
    x[4]      packing[22]  199
    x[4]      packing[23]  6
    x[4]      packing[24]  21
    x[4]      packing[25]  10
    x[4]      packing[26]  65
    x[4]      packing[27]  99
    x[4]      packing[28]  103
    x[4]      packing[29]  59
    x[4]      packing[31]  181
    x[4]      packing[34]  74
    x[4]      packing[35]  12
    x[4]      packing[36]  4
    x[4]      packing[37]  29
    x[4]      packing[38]  146
    x[4]      packing[39]  10
    x[4]      packing[40]  169
    x[4]      packing[41]  113
    x[4]      packing[43]  42
    x[4]      packing[44]  67
    x[4]      packing[45]  30
    x[4]      packing[46]  31
    x[4]      packing[47]  41
    x[5]      OBJ       20
    x[5]      packing[0]  176
    x[5]      packing[1]  123
    x[5]      packing[5]  99
    x[5]      packing[6]  42
    x[5]      packing[7]  195
    x[5]      packing[8]  165
    x[5]      packing[9]  38
    x[5]      packing[12]  44
    x[5]      packing[13]  188
    x[5]      packing[14]  176
    x[5]      packing[15]  146
    x[5]      packing[17]  28
    x[5]      packing[20]  99
    x[5]      packing[21]  99
    x[5]      packing[23]  67
    x[5]      packing[24]  170
    x[5]      packing[25]  175
    x[5]      packing[27]  82
    x[5]      packing[28]  11
    x[5]      packing[30]  124
    x[5]      packing[31]  149
    x[5]      packing[32]  49
    x[5]      packing[33]  121
    x[5]      packing[35]  13
    x[5]      packing[36]  107
    x[5]      packing[37]  27
    x[5]      packing[38]  195
    x[5]      packing[40]  37
    x[5]      packing[43]  103
    x[5]      packing[44]  7
    x[5]      packing[45]  159
    x[5]      packing[46]  53
    x[5]      packing[49]  77
    x[6]      OBJ       193
    x[6]      packing[0]  124
    x[6]      packing[2]  9
    x[6]      packing[3]  21
    x[6]      packing[4]  18
    x[6]      packing[5]  74
    x[6]      packing[6]  161
    x[6]      packing[8]  105
    x[6]      packing[9]  54
    x[6]      packing[10]  48
    x[6]      packing[11]  103
    x[6]      packing[14]  48
    x[6]      packing[15]  135
    x[6]      packing[16]  60
    x[6]      packing[18]  36
    x[6]      packing[19]  80
    x[6]      packing[20]  87
    x[6]      packing[21]  196
    x[6]      packing[22]  43
    x[6]      packing[25]  53
    x[6]      packing[28]  176
    x[6]      packing[29]  88
    x[6]      packing[30]  65
    x[6]      packing[32]  186
    x[6]      packing[33]  14
    x[6]      packing[34]  177
    x[6]      packing[36]  152
    x[6]      packing[37]  198
    x[6]      packing[38]  99
    x[6]      packing[39]  43
    x[6]      packing[40]  73
    x[6]      packing[42]  187
    x[6]      packing[43]  155
    x[6]      packing[45]  151
    x[6]      packing[49]  135
    x[6]      R62       1
    x[7]      OBJ       191
    x[7]      packing[0]  138
    x[7]      packing[1]  127
    x[7]      packing[2]  3
    x[7]      packing[3]  162
    x[7]      packing[4]  117
    x[7]      packing[6]  191
    x[7]      packing[7]  75
    x[7]      packing[9]  76
    x[7]      packing[10]  113
    x[7]      packing[11]  105
    x[7]      packing[12]  98
    x[7]      packing[13]  56
    x[7]      packing[14]  74
    x[7]      packing[16]  93
    x[7]      packing[18]  139
    x[7]      packing[21]  128
    x[7]      packing[22]  142
    x[7]      packing[23]  177
    x[7]      packing[24]  25
    x[7]      packing[25]  36
    x[7]      packing[26]  128
    x[7]      packing[28]  113
    x[7]      packing[29]  178
    x[7]      packing[30]  107
    x[7]      packing[31]  136
    x[7]      packing[32]  159
    x[7]      packing[33]  19
    x[7]      packing[34]  60
    x[7]      packing[35]  173
    x[7]      packing[38]  109
    x[7]      packing[39]  120
    x[7]      packing[40]  115
    x[7]      packing[41]  50
    x[7]      packing[42]  158
    x[7]      packing[43]  146
    x[7]      packing[44]  127
    x[7]      packing[46]  13
    x[7]      packing[47]  40
    x[7]      packing[49]  156
    x[8]      OBJ       37
    x[8]      packing[0]  156
    x[8]      packing[1]  127
    x[8]      packing[2]  37
    x[8]      packing[3]  10
    x[8]      packing[5]  4
    x[8]      packing[6]  5
    x[8]      packing[7]  149
    x[8]      packing[8]  181
    x[8]      packing[9]  127
    x[8]      packing[10]  55
    x[8]      packing[11]  146
    x[8]      packing[13]  178
    x[8]      packing[14]  190
    x[8]      packing[16]  22
    x[8]      packing[17]  83
    x[8]      packing[19]  76
    x[8]      packing[21]  143
    x[8]      packing[22]  71
    x[8]      packing[24]  177
    x[8]      packing[25]  52
    x[8]      packing[26]  140
    x[8]      packing[27]  193
    x[8]      packing[30]  128
    x[8]      packing[31]  20
    x[8]      packing[33]  168
    x[8]      packing[35]  60
    x[8]      packing[38]  82
    x[8]      packing[39]  84
    x[8]      packing[41]  87
    x[8]      packing[42]  72
    x[8]      packing[43]  119
    x[8]      packing[45]  123
    x[8]      packing[48]  96
    x[8]      packing[49]  132
    x[9]      OBJ       160
    x[9]      packing[0]  31
    x[9]      packing[1]  124
    x[9]      packing[3]  99
    x[9]      packing[4]  28
    x[9]      packing[5]  139
    x[9]      packing[6]  79
    x[9]      packing[8]  33
    x[9]      packing[11]  115
    x[9]      packing[12]  107
    x[9]      packing[13]  71
    x[9]      packing[15]  46
    x[9]      packing[16]  115
    x[9]      packing[18]  30
    x[9]      packing[19]  166
    x[9]      packing[21]  97
    x[9]      packing[22]  91
    x[9]      packing[23]  150
    x[9]      packing[24]  83
    x[9]      packing[25]  80
    x[9]      packing[26]  119
    x[9]      packing[27]  130
    x[9]      packing[28]  192
    x[9]      packing[30]  32
    x[9]      packing[31]  30
    x[9]      packing[33]  39
    x[9]      packing[34]  182
    x[9]      packing[36]  183
    x[9]      packing[37]  14
    x[9]      packing[38]  81
    x[9]      packing[39]  93
    x[9]      packing[40]  30
    x[9]      packing[41]  24
    x[9]      packing[43]  28
    x[9]      packing[45]  185
    x[9]      packing[46]  30
    x[9]      R62       1
    x[10]     OBJ       24
    x[10]     packing[0]  73
    x[10]     packing[1]  73
    x[10]     packing[2]  128
    x[10]     packing[3]  194
    x[10]     packing[5]  188
    x[10]     packing[6]  5
    x[10]     packing[7]  188
    x[10]     packing[9]  74
    x[10]     packing[10]  33
    x[10]     packing[11]  153
    x[10]     packing[12]  66
    x[10]     packing[13]  20
    x[10]     packing[14]  168
    x[10]     packing[15]  135
    x[10]     packing[16]  100
    x[10]     packing[17]  118
    x[10]     packing[18]  161
    x[10]     packing[19]  13
    x[10]     packing[20]  18
    x[10]     packing[21]  77
    x[10]     packing[22]  101
    x[10]     packing[23]  131
    x[10]     packing[24]  57
    x[10]     packing[25]  125
    x[10]     packing[26]  52
    x[10]     packing[27]  109
    x[10]     packing[28]  75
    x[10]     packing[29]  133
    x[10]     packing[30]  104
    x[10]     packing[31]  62
    x[10]     packing[34]  166
    x[10]     packing[35]  5
    x[10]     packing[36]  28
    x[10]     packing[37]  66
    x[10]     packing[38]  146
    x[10]     packing[39]  94
    x[10]     packing[41]  70
    x[10]     packing[42]  17
    x[10]     packing[44]  37
    x[10]     packing[45]  54
    x[10]     packing[46]  195
    x[10]     packing[47]  140
    x[10]     packing[48]  2
    x[11]     OBJ       70
    x[11]     packing[1]  173
    x[11]     packing[2]  109
    x[11]     packing[3]  131
    x[11]     packing[4]  49
    x[11]     packing[5]  107
    x[11]     packing[6]  173
    x[11]     packing[7]  141
    x[11]     packing[8]  65
    x[11]     packing[9]  53
    x[11]     packing[10]  43
    x[11]     packing[11]  120
    x[11]     packing[13]  66
    x[11]     packing[14]  178
    x[11]     packing[15]  120
    x[11]     packing[17]  99
    x[11]     packing[18]  128
    x[11]     packing[19]  175
    x[11]     packing[20]  27
    x[11]     packing[22]  87
    x[11]     packing[23]  3
    x[11]     packing[24]  15
    x[11]     packing[25]  109
    x[11]     packing[27]  85
    x[11]     packing[28]  106
    x[11]     packing[29]  143
    x[11]     packing[30]  186
    x[11]     packing[31]  4
    x[11]     packing[32]  79
    x[11]     packing[33]  139
    x[11]     packing[35]  48
    x[11]     packing[36]  189
    x[11]     packing[37]  14
    x[11]     packing[38]  9
    x[11]     packing[39]  153
    x[11]     packing[40]  143
    x[11]     packing[41]  153
    x[11]     packing[44]  118
    x[11]     packing[46]  149
    x[11]     packing[47]  60
    x[11]     packing[48]  75
    x[11]     packing[49]  88
    x[12]     OBJ       107
    x[12]     packing[0]  141
    x[12]     packing[1]  195
    x[12]     packing[2]  33
    x[12]     packing[3]  28
    x[12]     packing[4]  176
    x[12]     packing[6]  52
    x[12]     packing[8]  56
    x[12]     packing[10]  170
    x[12]     packing[12]  130
    x[12]     packing[14]  79
    x[12]     packing[15]  163
    x[12]     packing[16]  28
    x[12]     packing[17]  103
    x[12]     packing[18]  144
    x[12]     packing[19]  33
    x[12]     packing[22]  60
    x[12]     packing[23]  113
    x[12]     packing[25]  174
    x[12]     packing[27]  187
    x[12]     packing[28]  157
    x[12]     packing[29]  174
    x[12]     packing[30]  46
    x[12]     packing[31]  126
    x[12]     packing[33]  25
    x[12]     packing[34]  125
    x[12]     packing[35]  173
    x[12]     packing[36]  40
    x[12]     packing[37]  120
    x[12]     packing[38]  142
    x[12]     packing[39]  109
    x[12]     packing[40]  122
    x[12]     packing[41]  151
    x[12]     packing[43]  118
    x[12]     packing[44]  190
    x[12]     packing[45]  23
    x[12]     packing[46]  87
    x[12]     packing[47]  176
    x[12]     packing[48]  74
    x[12]     packing[49]  170
    x[13]     OBJ       78
    x[13]     packing[0]  24
    x[13]     packing[1]  7
    x[13]     packing[2]  116
    x[13]     packing[5]  91
    x[13]     packing[6]  81
    x[13]     packing[7]  21
    x[13]     packing[8]  67
    x[13]     packing[11]  178
    x[13]     packing[13]  33
    x[13]     packing[14]  65
    x[13]     packing[15]  112
    x[13]     packing[16]  80
    x[13]     packing[17]  185
    x[13]     packing[18]  75
    x[13]     packing[19]  25
    x[13]     packing[20]  36
    x[13]     packing[21]  123
    x[13]     packing[23]  159
    x[13]     packing[24]  94
    x[13]     packing[27]  159
    x[13]     packing[31]  190
    x[13]     packing[32]  50
    x[13]     packing[33]  161
    x[13]     packing[34]  26
    x[13]     packing[35]  164
    x[13]     packing[36]  41
    x[13]     packing[37]  136
    x[13]     packing[38]  150
    x[13]     packing[39]  79
    x[13]     packing[40]  48
    x[13]     packing[41]  1
    x[13]     packing[42]  5
    x[13]     packing[43]  134
    x[13]     packing[44]  94
    x[13]     packing[45]  113
    x[13]     packing[47]  102
    x[13]     packing[48]  88
    x[13]     packing[49]  191
    x[13]     R62       1
    x[14]     OBJ       139
    x[14]     packing[0]  33
    x[14]     packing[1]  2
    x[14]     packing[2]  115
    x[14]     packing[3]  57
    x[14]     packing[4]  83
    x[14]     packing[5]  137
    x[14]     packing[7]  118
    x[14]     packing[8]  55
    x[14]     packing[11]  3
    x[14]     packing[15]  51
    x[14]     packing[17]  173
    x[14]     packing[18]  3
    x[14]     packing[19]  26
    x[14]     packing[20]  144
    x[14]     packing[21]  190
    x[14]     packing[22]  132
    x[14]     packing[23]  169
    x[14]     packing[24]  21
    x[14]     packing[25]  136
    x[14]     packing[27]  54
    x[14]     packing[29]  84
    x[14]     packing[30]  23
    x[14]     packing[31]  149
    x[14]     packing[32]  116
    x[14]     packing[33]  146
    x[14]     packing[34]  59
    x[14]     packing[35]  178
    x[14]     packing[38]  52
    x[14]     packing[40]  53
    x[14]     packing[42]  126
    x[14]     packing[44]  56
    x[14]     packing[45]  105
    x[14]     packing[46]  90
    x[14]     packing[47]  159
    x[14]     packing[48]  158
    x[14]     packing[49]  38
    x[15]     OBJ       55
    x[15]     packing[0]  61
    x[15]     packing[1]  48
    x[15]     packing[3]  123
    x[15]     packing[4]  176
    x[15]     packing[5]  197
    x[15]     packing[6]  159
    x[15]     packing[7]  179
    x[15]     packing[8]  144
    x[15]     packing[9]  12
    x[15]     packing[11]  77
    x[15]     packing[12]  164
    x[15]     packing[14]  56
    x[15]     packing[15]  51
    x[15]     packing[16]  196
    x[15]     packing[17]  139
    x[15]     packing[19]  85
    x[15]     packing[20]  71
    x[15]     packing[21]  146
    x[15]     packing[22]  198
    x[15]     packing[23]  138
    x[15]     packing[24]  128
    x[15]     packing[26]  85
    x[15]     packing[27]  119
    x[15]     packing[28]  160
    x[15]     packing[30]  57
    x[15]     packing[31]  129
    x[15]     packing[32]  171
    x[15]     packing[33]  19
    x[15]     packing[34]  168
    x[15]     packing[35]  20
    x[15]     packing[36]  195
    x[15]     packing[37]  135
    x[15]     packing[38]  145
    x[15]     packing[39]  48
    x[15]     packing[40]  19
    x[15]     packing[41]  58
    x[15]     packing[42]  95
    x[15]     packing[43]  130
    x[15]     packing[44]  62
    x[15]     packing[45]  18
    x[15]     packing[46]  127
    x[15]     packing[47]  10
    x[15]     packing[48]  33
    x[15]     packing[49]  71
    x[16]     OBJ       179
    x[16]     packing[0]  111
    x[16]     packing[1]  96
    x[16]     packing[3]  25
    x[16]     packing[5]  59
    x[16]     packing[6]  145
    x[16]     packing[7]  54
    x[16]     packing[8]  43
    x[16]     packing[10]  60
    x[16]     packing[12]  113
    x[16]     packing[14]  50
    x[16]     packing[17]  51
    x[16]     packing[18]  10
    x[16]     packing[19]  181
    x[16]     packing[20]  80
    x[16]     packing[21]  129
    x[16]     packing[22]  26
    x[16]     packing[24]  143
    x[16]     packing[25]  132
    x[16]     packing[26]  46
    x[16]     packing[27]  96
    x[16]     packing[28]  80
    x[16]     packing[30]  167
    x[16]     packing[31]  167
    x[16]     packing[32]  38
    x[16]     packing[33]  159
    x[16]     packing[35]  17
    x[16]     packing[37]  39
    x[16]     packing[39]  106
    x[16]     packing[41]  60
    x[16]     packing[42]  83
    x[16]     packing[43]  130
    x[16]     packing[44]  114
    x[16]     packing[46]  167
    x[16]     packing[48]  71
    x[16]     packing[49]  112
    x[16]     R62       1
    x[17]     OBJ       58
    x[17]     packing[0]  4
    x[17]     packing[1]  43
    x[17]     packing[2]  31
    x[17]     packing[6]  194
    x[17]     packing[7]  128
    x[17]     packing[8]  44
    x[17]     packing[9]  178
    x[17]     packing[10]  21
    x[17]     packing[11]  9
    x[17]     packing[12]  163
    x[17]     packing[13]  30
    x[17]     packing[14]  131
    x[17]     packing[16]  103
    x[17]     packing[17]  191
    x[17]     packing[18]  113
    x[17]     packing[19]  38
    x[17]     packing[20]  131
    x[17]     packing[21]  132
    x[17]     packing[22]  90
    x[17]     packing[23]  144
    x[17]     packing[24]  168
    x[17]     packing[27]  145
    x[17]     packing[28]  38
    x[17]     packing[29]  10
    x[17]     packing[30]  105
    x[17]     packing[33]  134
    x[17]     packing[34]  109
    x[17]     packing[37]  65
    x[17]     packing[38]  69
    x[17]     packing[40]  85
    x[17]     packing[41]  155
    x[17]     packing[42]  104
    x[17]     packing[43]  91
    x[17]     packing[44]  155
    x[17]     packing[45]  108
    x[17]     packing[47]  76
    x[17]     packing[48]  122
    x[17]     packing[49]  19
    x[18]     OBJ       90
    x[18]     packing[1]  54
    x[18]     packing[2]  126
    x[18]     packing[3]  23
    x[18]     packing[4]  30
    x[18]     packing[5]  11
    x[18]     packing[6]  27
    x[18]     packing[7]  69
    x[18]     packing[8]  92
    x[18]     packing[9]  187
    x[18]     packing[10]  69
    x[18]     packing[11]  80
    x[18]     packing[12]  155
    x[18]     packing[14]  23
    x[18]     packing[15]  28
    x[18]     packing[16]  47
    x[18]     packing[17]  122
    x[18]     packing[18]  138
    x[18]     packing[19]  167
    x[18]     packing[20]  168
    x[18]     packing[25]  61
    x[18]     packing[26]  127
    x[18]     packing[27]  70
    x[18]     packing[30]  7
    x[18]     packing[31]  137
    x[18]     packing[32]  121
    x[18]     packing[33]  139
    x[18]     packing[35]  21
    x[18]     packing[36]  3
    x[18]     packing[38]  78
    x[18]     packing[39]  67
    x[18]     packing[41]  11
    x[18]     packing[42]  151
    x[18]     packing[44]  16
    x[18]     packing[46]  129
    x[18]     packing[47]  177
    x[18]     packing[48]  176
    x[18]     packing[49]  76
    x[19]     OBJ       24
    x[19]     packing[0]  169
    x[19]     packing[1]  163
    x[19]     packing[2]  116
    x[19]     packing[4]  45
    x[19]     packing[5]  4
    x[19]     packing[6]  34
    x[19]     packing[8]  30
    x[19]     packing[9]  20
    x[19]     packing[10]  166
    x[19]     packing[11]  192
    x[19]     packing[12]  159
    x[19]     packing[14]  9
    x[19]     packing[15]  114
    x[19]     packing[16]  137
    x[19]     packing[17]  164
    x[19]     packing[18]  152
    x[19]     packing[19]  84
    x[19]     packing[21]  7
    x[19]     packing[22]  7
    x[19]     packing[23]  43
    x[19]     packing[24]  170
    x[19]     packing[25]  141
    x[19]     packing[26]  182
    x[19]     packing[28]  89
    x[19]     packing[29]  96
    x[19]     packing[31]  60
    x[19]     packing[32]  57
    x[19]     packing[33]  60
    x[19]     packing[34]  179
    x[19]     packing[35]  43
    x[19]     packing[38]  78
    x[19]     packing[39]  41
    x[19]     packing[40]  47
    x[19]     packing[41]  124
    x[19]     packing[43]  95
    x[19]     packing[45]  119
    x[19]     packing[46]  16
    x[19]     packing[47]  118
    x[19]     packing[48]  24
    x[19]     packing[49]  197
    x[20]     OBJ       141
    x[20]     packing[0]  43
    x[20]     packing[1]  76
    x[20]     packing[2]  115
    x[20]     packing[3]  86
    x[20]     packing[5]  98
    x[20]     packing[8]  154
    x[20]     packing[10]  179
    x[20]     packing[11]  101
    x[20]     packing[12]  29
    x[20]     packing[13]  199
    x[20]     packing[16]  126
    x[20]     packing[17]  148
    x[20]     packing[18]  179
    x[20]     packing[19]  111
    x[20]     packing[21]  176
    x[20]     packing[22]  21
    x[20]     packing[24]  199
    x[20]     packing[25]  188
    x[20]     packing[26]  191
    x[20]     packing[27]  162
    x[20]     packing[28]  107
    x[20]     packing[29]  145
    x[20]     packing[30]  114
    x[20]     packing[31]  159
    x[20]     packing[33]  17
    x[20]     packing[34]  120
    x[20]     packing[35]  151
    x[20]     packing[36]  178
    x[20]     packing[37]  2
    x[20]     packing[38]  51
    x[20]     packing[41]  89
    x[20]     packing[42]  5
    x[20]     packing[43]  72
    x[20]     packing[44]  105
    x[20]     packing[45]  105
    x[20]     packing[47]  19
    x[20]     packing[48]  173
    x[20]     packing[49]  14
    MARKER    'MARKER'                 'INTEND'
RHS
    RHS1      packing[0]  855
    RHS1      packing[1]  896
    RHS1      packing[2]  578
    RHS1      packing[3]  652
    RHS1      packing[4]  582
    RHS1      packing[5]  826
    RHS1      packing[6]  806
    RHS1      packing[7]  782
    RHS1      packing[8]  770
    RHS1      packing[9]  606
    RHS1      packing[10]  599
    RHS1      packing[11]  780
    RHS1      packing[12]  739
    RHS1      packing[13]  537
    RHS1      packing[14]  824
    RHS1      packing[15]  689
    RHS1      packing[16]  648
    RHS1      packing[17]  989
    RHS1      packing[18]  733
    RHS1      packing[19]  824
    RHS1      packing[20]  544
    RHS1      packing[21]  1009
    RHS1      packing[22]  730
    RHS1      packing[23]  745
    RHS1      packing[24]  994
    RHS1      packing[25]  834
    RHS1      packing[26]  683
    RHS1      packing[27]  898
    RHS1      packing[28]  766
    RHS1      packing[29]  651
    RHS1      packing[30]  821
    RHS1      packing[31]  993
    RHS1      packing[32]  705
    RHS1      packing[33]  841
    RHS1      packing[34]  801
    RHS1      packing[35]  661
    RHS1      packing[36]  678
    RHS1      packing[37]  482
    RHS1      packing[38]  969
    RHS1      packing[39]  591
    RHS1      packing[40]  563
    RHS1      packing[41]  743
    RHS1      packing[42]  717
    RHS1      packing[43]  785
    RHS1      packing[44]  752
    RHS1      packing[45]  836
    RHS1      packing[46]  606
    RHS1      packing[47]  734
    RHS1      packing[48]  646
    RHS1      packing[49]  794
    RHS1      R62       4
BOUNDS
 BV BND1      x[1]    
 BV BND1      x[2]    
 BV BND1      x[3]    
 BV BND1      x[4]    
 BV BND1      x[5]    
 BV BND1      x[6]    
 BV BND1      x[7]    
 BV BND1      x[8]    
 BV BND1      x[9]    
 BV BND1      x[10]   
 BV BND1      x[11]   
 BV BND1      x[12]   
 BV BND1      x[13]   
 BV BND1      x[14]   
 BV BND1      x[15]   
 BV BND1      x[16]   
 BV BND1      x[17]   
 BV BND1      x[18]   
 BV BND1      x[19]   
 BV BND1      x[20]   
ENDATA
